p cnf 324 1005
c ind 221 245 246 249 251 224 227 220 242 248 0
c ind 222 252 223 225 226 228 250 243 244 229 0
c ind 235 236 237 247 233 238 231 239 234 232 0
c ind 241 240 230 1 0
c ret 319 320 321 322 253 254 255 256 257 258 0
c ret 259 260 261 262 263 264 265 266 267 268 0
c ret 269 270 271 272 273 274 275 276 277 278 0
c ret 279 280 281 282 283 284 285 286 287 288 0
c ret 289 290 291 292 293 294 295 296 297 298 0
c ret 299 300 301 302 303 304 305 306 307 308 0
c ret 309 310 311 312 313 314 315 316 317 318 0
2 -3 -192 -198 286 0
2 3 -192 -198 -286 0
-2 198 0
-2 3 286 0
-2 192 0
-2 -3 -286 0
3 129 187 0
3 -4 187 0
3 -75 187 0
-3 -187 0
-3 4 75 -129 0
4 -67 73 0
4 -73 74 0
4 -5 73 0
-4 -73 -74 0
-4 5 67 73 0
5 6 16 0
-5 -6 0
-5 -16 0
6 -7 -12 0
-6 7 0
-6 12 0
7 8 -10 0
-7 -8 0
-7 10 0
8 276 -278 0
8 9 -276 278 0
8 -9 -275 276 0
-8 -9 -276 0
-8 9 276 278 0
-8 -276 -278 0
-8 -9 275 278 0
9 277 -279 0
-9 -277 0
-9 279 0
10 -277 278 -279 0
10 11 277 279 0
10 277 -278 -279 0
10 -11 278 -279 0
-10 -277 -278 0
-10 11 277 278 -279 0
-10 -277 279 0
-10 -11 279 0
11 275 276 0
-11 -275 0
-11 -276 0
12 -13 -14 0
-12 13 0
-12 14 0
13 277 -278 0
13 276 277 0
13 277 -279 0
13 -276 -277 278 0
-13 276 -277 0
-13 -277 -278 0
-13 -276 277 278 279 0
14 15 275 -276 0
14 275 276 -277 0
-14 -275 0
-14 -15 -276 0
-14 276 277 0
15 -277 -278 0
-15 277 0
-15 278 0
16 17 -19 0
16 -17 -64 0
16 -17 -54 0
-16 17 19 0
-16 -17 54 64 0
-8 10 17 -18 0
8 -17 0
-10 -17 0
-17 18 0
13 -14 18 0
-13 -18 0
14 -18 0
19 23 27 0
19 20 -22 27 0
-19 -27 0
-19 -20 -23 0
-19 22 -23 0
20 -21 281 282 -283 0
-20 -281 0
-20 21 0
-20 283 0
-20 -282 0
21 259 268 0
-21 -259 0
-21 -268 0
22 -230 -263 0
22 230 263 0
-22 230 -263 0
-22 -230 263 0
23 -24 -230 0
23 -24 25 0
-23 24 0
-23 -25 230 0
-15 24 275 -276 0
15 -24 0
-24 276 0
-24 -275 0
25 26 281 282 -283 0
-25 -281 0
-25 -26 0
-25 283 0
-25 -282 0
26 259 -268 0
26 -259 268 0
-26 -259 -268 0
-26 259 268 0
24 27 29 -51 0
24 27 28 29 0
-24 -27 0
-27 -29 0
-27 -28 51 0
-7 28 275 276 277 0
7 -28 0
-28 -277 0
-28 -275 0
-28 -276 0
28 29 34 45 0
28 29 30 34 0
-28 -29 0
-29 -34 0
-29 -30 -45 0
8 10 30 -31 0
-30 31 0
-10 -30 0
-8 -30 0
15 31 -32 0
-15 -31 0
-31 32 0
32 -33 -275 0
-32 275 0
-32 33 0
33 -276 -277 0
33 -276 -279 0
33 -276 -278 0
-33 276 0
-33 277 278 279 0
30 34 39 43 0
30 34 35 39 0
-30 -34 0
-34 -39 0
-34 -35 -43 0
-7 35 36 -37 0
7 -35 0
-35 -36 0
-35 37 0
-13 36 -275 0
13 36 275 0
-13 -36 275 0
13 -36 -275 0
32 37 38 0
-37 -38 0
-32 -37 0
15 38 275 0
38 275 276 0
-38 -275 0
-15 -38 -276 0
35 39 -40 230 0
-22 35 39 40 0
-35 -39 0
-39 -40 -230 0
22 -39 40 0
40 -41 -269 0
-40 269 0
-40 41 0
-12 41 -42 0
12 -41 0
-41 42 0
-8 -10 42 0
8 -42 0
10 -42 0
-22 43 44 0
43 -44 230 0
-43 -44 -230 0
22 -43 44 0
44 269 -270 0
-44 -269 0
-44 270 0
45 46 49 0
45 49 230 0
45 46 -48 -230 0
-45 -46 -230 0
-45 -49 230 0
-45 48 -49 0
46 -47 -256 0
-46 256 0
-46 47 0
47 -255 -263 -285 0
47 -255 -263 -268 0
-47 255 0
-47 263 0
-47 268 285 0
-47 48 285 0
-47 48 268 0
47 -48 0
-48 -268 -285 0
-22 49 50 0
-47 49 50 0
-49 -50 0
22 47 -49 0
-46 50 285 0
-46 50 268 0
46 -50 0
-50 -268 -285 0
51 -53 -230 0
22 51 52 0
51 52 -53 0
22 51 -230 0
-22 -51 53 0
-51 -52 230 0
26 52 -281 282 -283 0
-52 283 0
-26 -52 0
-52 281 0
-52 -282 0
-21 53 -281 282 -283 0
21 -53 0
-53 281 0
-53 283 0
-53 -282 0
54 -55 -62 0
54 -55 57 264 0
-54 55 0
-54 62 -264 0
-54 -57 62 0
55 56 281 -282 283 0
-55 282 0
-55 -56 0
-55 -281 0
-55 -283 0
56 253 -268 0
56 -253 268 0
56 253 285 0
-56 -253 -268 0
-56 253 268 -285 0
22 57 230 0
57 -58 61 0
22 57 61 0
57 -58 230 0
-57 -61 -230 0
-22 -57 58 0
58 -59 -254 0
58 -59 60 0
-58 59 0
-58 -60 254 0
59 264 -266 0
-59 -264 0
-59 266 0
60 -267 -285 0
60 267 285 0
-60 267 -285 0
-60 -267 285 0
-59 61 -254 0
-59 61 -267 0
-59 61 -285 0
59 -61 0
-61 254 267 285 0
62 63 -264 265 0
-22 62 -264 -265 0
-62 264 0
22 -62 -265 0
-62 -63 265 0
63 230 -267 285 0
22 63 267 285 0
22 63 230 0
63 230 267 -285 0
-63 -230 -267 0
-22 -63 -267 -285 0
-63 -230 -285 0
-22 -63 267 285 0
-22 64 65 0
22 -64 0
-64 -65 0
65 -66 281 -282 283 0
-65 282 0
-65 -283 0
-65 -281 0
-65 66 0
66 253 268 -285 0
-66 285 0
-66 -268 0
-66 -253 0
22 67 -72 0
67 -68 70 -72 0
-67 72 0
-22 -67 68 0
-22 -67 -70 0
-66 68 -69 0
66 -68 0
-68 69 0
69 258 -281 282 283 0
-69 281 0
-69 -283 0
-69 -258 0
-69 -282 0
70 -71 264 0
70 -71 -265 0
63 70 -71 0
-70 71 0
-63 -70 -264 265 0
56 -69 71 0
-56 -71 0
69 -71 0
-6 72 -265 0
-6 70 72 0
-6 72 264 0
6 -72 0
-70 -72 -264 265 0
-36 -37 -42 73 0
42 -73 0
36 -73 0
37 -73 0
74 230 -257 0
-22 74 257 0
-74 -230 -257 0
22 -74 257 0
75 76 -127 0
-6 75 76 0
75 76 -90 0
-75 -76 0
6 -75 90 127 0
-6 76 77 82 87 0
-76 -87 0
-76 -82 0
6 -76 0
-76 -77 0
77 78 -285 0
77 78 79 0
77 78 238 0
-77 -78 0
-77 -79 -238 285 0
78 -238 -271 0
78 238 271 0
-78 238 -271 0
-78 -238 271 0
79 -80 -266 0
-79 266 0
-79 80 0
-71 80 -81 0
71 -80 0
-80 81 0
81 263 264 0
-81 -263 0
-81 -264 0
82 83 86 0
-68 82 -84 0
82 83 -84 0
68 -82 -83 0
-82 84 -86 0
-82 -83 84 0
83 -241 -274 0
83 241 274 0
-83 241 -274 0
-83 -241 274 0
84 -85 263 -264 265 0
-84 264 0
-84 -265 0
-84 -263 0
-84 85 0
85 -241 267 -285 0
83 85 267 285 0
83 85 -241 0
85 -241 -267 285 0
-85 241 -285 0
-83 -85 -267 -285 0
-85 241 -267 0
-83 -85 267 285 0
-71 86 263 -264 265 0
-86 264 0
-86 -265 0
-86 -263 0
71 -86 0
80 87 -88 0
87 89 233 0
80 87 89 0
87 -88 233 0
-80 -87 -233 0
-87 88 -89 0
-68 -81 88 0
68 -88 0
81 -88 0
89 -233 -266 0
89 233 266 0
-89 233 -266 0
-89 -233 266 0
90 105 107 0
90 -91 107 0
90 -97 107 0
-90 -107 0
-90 91 97 -105 0
55 83 91 0
-65 91 -92 0
55 -65 91 0
83 91 -92 0
-55 -91 92 0
65 -83 -91 0
92 93 95 263 0
83 92 93 95 0
-92 -95 0
-92 -93 0
-83 -92 -263 0
93 -94 -264 265 0
-83 93 -264 -265 0
-93 264 0
83 -93 -265 0
-93 94 265 0
85 94 263 0
-94 -263 0
-85 -94 0
95 -96 264 0
58 -83 95 264 0
-95 -264 0
-58 -95 96 0
83 -95 96 0
-61 96 -241 263 0
-96 241 0
-96 -263 0
61 -96 0
97 -98 100 0
97 99 100 0
-97 -100 0
-97 98 -99 0
-65 -81 98 0
65 -98 0
81 -98 0
99 -240 -273 0
99 240 273 0
-99 240 -273 0
-99 -240 273 0
100 -103 240 0
-61 100 -101 -103 0
-100 103 0
61 -100 -240 0
-100 101 -240 0
101 -102 267 0
101 -102 -271 -272 0
-101 102 0
-101 -267 271 0
-101 -267 272 0
102 -268 -285 0
-102 268 0
-102 285 0
58 103 -104 0
101 103 -104 0
103 -104 -240 0
-103 104 0
-58 -101 -103 240 0
-55 -81 104 0
55 -104 0
81 -104 0
-17 105 -106 0
-17 -104 105 -233 0
17 -105 0
104 -105 106 0
-105 106 233 0
-89 98 106 0
89 -106 0
-98 -106 0
107 -108 -120 123 0
107 -108 -118 123 0
-107 108 0
-107 -123 0
-107 118 120 0
108 -110 -113 0
-28 108 109 -113 0
-108 113 0
-108 -109 110 0
28 -108 110 0
89 109 -233 0
52 -53 109 0
52 89 109 0
-53 109 -233 0
-52 -109 233 0
53 -89 -109 0
28 110 -111 233 0
28 -89 110 111 0
-28 -110 0
-110 -111 -233 0
89 -110 111 0
111 -112 -261 0
-111 261 0
-111 112 0
-7 -18 112 0
7 -112 0
18 -112 0
17 113 114 117 0
17 30 113 114 0
-17 -113 0
-113 -114 0
-30 -113 -117 0
83 114 115 0
30 83 114 0
-30 46 114 115 0
-30 -114 -115 0
30 -83 -114 0
-46 -83 -114 0
50 115 -116 0
-47 50 115 241 0
-50 -115 0
-115 116 -241 0
47 -115 116 0
48 -83 116 0
-48 -116 0
83 -116 0
47 99 117 0
99 117 -285 0
-47 117 -240 285 0
47 -99 -117 0
-99 -117 -285 0
-47 -117 240 285 0
-41 118 -119 -238 0
-41 -78 118 119 0
41 -118 0
-118 -119 238 0
78 -118 119 0
119 262 -269 0
-119 -262 0
-119 269 0
41 120 -121 238 0
41 -78 120 121 0
-41 -120 0
-120 -121 -238 0
78 -120 121 0
121 -122 285 0
-121 -285 0
-121 122 0
-31 -42 122 -258 -272 0
31 -122 0
-122 258 0
42 -122 0
-122 272 0
30 -41 123 125 0
30 41 123 -124 0
-30 -123 0
-41 -123 -125 0
41 -123 124 0
99 124 -285 0
99 122 124 0
-122 124 -240 285 0
-99 -124 -285 0
-99 122 -124 0
-122 -124 240 285 0
125 126 -269 0
-99 125 126 0
-125 -126 0
99 -125 269 0
126 240 -269 -271 0
126 240 262 -269 0
126 -240 -262 -269 271 0
-126 -240 262 0
-126 240 -262 271 0
-126 269 0
-126 -240 -271 0
-17 127 128 -238 0
-17 104 127 128 0
17 -127 0
-127 -128 0
-104 -127 238 0
-78 98 128 0
78 -128 0
-98 -128 0
129 130 151 171 -175 0
-129 175 0
-129 -171 0
-129 -130 0
-129 -151 0
130 138 144 0
130 -131 144 0
17 130 144 0
-130 -144 0
-17 -130 131 -138 0
131 132 -134 0
61 131 132 0
104 131 132 0
-131 -132 0
-61 -104 -131 134 0
98 132 -133 0
-55 58 132 -133 0
-132 133 0
-58 -98 -132 0
55 -98 -132 0
133 -247 -280 0
133 247 280 0
-133 247 -280 0
-133 -247 280 0
60 134 -136 0
134 135 -136 -254 0
-134 136 0
-60 -134 -135 0
-60 -134 254 0
135 -271 -285 0
-135 271 0
-135 285 0
136 -137 -247 0
136 137 247 0
-136 -137 247 0
-136 137 -247 0
137 267 -285 0
-137 -267 0
-137 285 0
-6 138 0
138 139 142 0
6 -138 -139 0
6 -138 -142 0
-98 104 139 0
139 -140 141 0
104 139 141 0
-98 139 -140 0
-104 -139 140 0
98 -139 -141 0
140 234 -285 0
140 -234 285 0
-140 -234 -285 0
-140 234 285 0
141 -234 -267 0
141 234 267 0
-141 234 -267 0
-141 -234 267 0
-98 104 142 0
142 143 -239 0
-98 142 -239 0
104 142 143 0
98 -142 -143 0
-104 -142 239 0
143 -239 -272 0
143 239 272 0
-143 239 -272 0
-143 -239 272 0
-6 17 144 149 0
17 144 -145 149 0
-144 -149 0
-17 -144 0
6 -144 145 0
-141 145 146 -148 0
145 -146 -147 -148 0
-145 148 0
-145 -146 147 0
141 -145 146 0
-35 146 -264 269 -270 0
35 -146 0
-146 264 0
-146 270 0
-146 -269 0
147 -234 -262 0
147 234 262 0
-147 234 -262 0
-147 -234 262 0
-40 148 -239 0
40 -143 148 0
-40 -148 239 0
40 143 -148 0
133 149 150 0
30 133 149 0
-30 -50 149 150 0
-30 -149 -150 0
30 -133 -149 0
50 -133 -149 0
-46 150 -247 0
-46 150 -273 -285 0
46 -150 0
-150 247 285 0
-150 247 273 0
-17 151 152 0
17 151 167 0
17 151 -157 0
-17 -151 -152 0
17 -151 157 -167 0
152 153 -155 0
-104 152 153 -231 0
-152 -153 0
104 -152 155 0
-152 155 231 0
-98 104 153 0
153 154 -232 0
-98 153 -232 0
104 153 154 0
98 -153 -154 0
-104 -153 232 0
154 -232 -265 0
154 232 265 0
-154 232 -265 0
-154 -232 265 0
98 155 -156 0
-98 -155 0
-155 156 0
156 -231 -264 0
156 231 264 0
-156 231 -264 0
-156 -231 264 0
24 157 -158 0
24 157 164 0
24 157 -159 0
-24 -157 0
-157 158 159 -164 0
40 112 156 158 0
-40 112 158 -231 0
-112 -158 0
-40 -158 231 0
40 -156 -158 0
28 159 160 162 0
28 30 159 160 0
-159 -160 0
-28 -159 0
-30 -159 -162 0
-154 160 161 0
-160 -161 0
154 -160 0
-30 46 161 0
30 -161 0
-46 -161 0
50 162 -163 0
48 50 -154 162 0
-50 -162 0
-48 -162 163 0
154 -162 163 0
-47 163 232 264 0
-47 163 232 265 0
-47 163 -232 -264 -265 0
-163 -232 264 0
-163 232 -264 -265 0
47 -163 0
-163 -232 265 0
28 164 166 0
164 165 166 0
-164 -166 0
-28 -164 -165 0
52 -53 165 0
154 165 232 0
52 154 165 0
-53 165 232 0
-52 -165 -232 0
53 -154 -165 0
-112 156 166 261 0
-112 166 -231 -261 0
112 -166 0
-166 231 -261 0
-156 -166 261 0
167 168 170 0
-25 167 168 -232 0
-167 -168 0
-167 -170 232 0
25 -167 -170 0
-24 168 169 -231 0
-24 25 168 169 0
24 -168 0
-168 -169 0
-25 -168 231 0
20 -156 169 0
-20 -169 0
156 -169 0
-20 -24 170 0
-24 154 170 0
24 -170 0
20 -154 -170 0
35 171 -172 0
-35 171 -174 0
-35 -171 174 0
35 -171 172 0
40 172 173 0
-40 172 -236 0
-40 172 -237 0
40 -172 -173 0
-40 -172 236 237 0
173 -236 -269 0
173 236 -237 269 -270 0
173 236 237 269 270 0
-173 -236 269 0
-173 236 -237 270 0
-173 236 -269 0
-173 237 269 -270 0
174 -237 269 0
174 236 -269 0
174 -236 269 0
-174 -236 -269 0
-174 236 237 269 0
175 176 179 -182 -183 0
-175 -176 0
-175 183 0
-175 182 0
-175 -179 0
-6 141 176 178 0
-6 176 -177 178 0
6 -176 0
-176 -178 0
-141 -176 177 0
79 -88 177 0
143 177 239 0
79 143 177 0
-88 177 239 0
-79 -177 -239 0
88 -143 -177 0
59 -80 140 -143 178 0
80 -178 0
-140 -178 0
-59 -178 0
143 -178 0
-6 -88 179 180 0
-6 99 179 180 0
6 -179 0
-179 -180 0
88 -99 -179 0
-59 -80 180 -181 0
59 -80 -99 180 0
80 -180 0
-59 -180 181 0
59 99 -180 0
181 -240 -271 0
181 -240 285 0
181 240 271 -285 0
-181 240 -271 0
-181 240 285 0
-181 -240 271 -285 0
135 182 -286 -287 0
182 -254 -286 -287 0
-182 287 0
-182 286 0
-135 -182 254 0
183 -185 -186 -256 0
183 184 -185 -186 0
-183 186 0
-183 185 0
-183 -184 256 0
184 -273 -285 0
-184 273 0
-184 285 0
185 -235 -268 0
185 235 268 0
-185 235 -268 0
-185 -235 268 0
186 -229 -262 0
186 229 262 0
-186 229 -262 0
-186 -229 262 0
187 -188 -191 234 235 0
187 -188 -191 -234 -235 0
-187 191 0
-187 -234 235 0
-187 188 0
-187 234 -235 0
188 -189 -190 230 231 0
-188 -230 0
-188 190 0
-188 189 0
-188 -231 0
189 236 237 0
-189 -236 0
-189 -237 0
190 232 233 238 239 0
-190 -239 0
-190 -238 0
-190 -232 0
-190 -233 0
191 240 241 287 0
-191 -240 0
-191 -287 0
-191 -241 0
192 -193 -194 -195 -197 0
-192 197 0
-192 193 0
-192 195 0
-192 194 0
193 -227 251 -260 284 0
193 227 -251 260 -284 0
193 227 251 260 284 0
193 -227 -251 -260 -284 0
-193 -227 260 0
-193 227 -260 0
-193 251 -284 0
-193 -251 284 0
194 -221 243 -254 276 0
194 221 -243 254 -276 0
194 221 243 254 276 0
194 -221 -243 -254 -276 0
-194 -221 254 0
-194 221 -254 0
-194 243 -276 0
-194 -243 276 0
-99 195 -196 235 268 0
-99 195 -196 -235 -268 0
-195 196 0
-195 -235 268 0
99 -195 0
-195 235 -268 0
-186 196 -244 -277 0
-186 196 244 277 0
186 -196 0
-196 -244 277 0
-196 244 -277 0
-22 -78 -83 -89 197 0
89 -197 0
22 -197 0
83 -197 0
78 -197 0
198 -199 -206 -210 -215 0
-198 215 0
-198 199 0
-198 210 0
-198 206 0
199 200 -201 226 259 0
199 200 -201 -226 -259 0
-199 -200 0
-199 226 -259 0
-199 201 0
-199 -226 259 0
200 223 -256 0
-200 -223 0
-200 256 0
201 -202 -205 228 261 0
201 -202 -205 -228 -261 0
-201 205 0
-201 -228 261 0
-201 202 0
-201 228 -261 0
202 203 204 246 279 0
202 203 204 -246 -279 0
-202 -203 0
-202 -246 279 0
-202 -204 0
-202 246 -279 0
203 220 -253 0
-203 -220 0
-203 253 0
204 -223 256 0
-204 223 0
-204 -256 0
205 220 252 0
205 -253 -285 0
205 220 -285 0
205 252 -253 0
-205 -220 253 0
-205 -252 285 0
206 -207 -208 242 275 0
206 -207 -208 -242 -275 0
-206 208 0
-206 -242 275 0
-206 207 0
-206 242 -275 0
207 248 250 0
207 -281 -283 0
207 248 -283 0
207 250 -281 0
-207 -248 281 0
-207 -250 283 0
208 209 245 278 -287 0
208 209 -245 -278 -287 0
-208 -209 0
-208 -245 278 0
-208 287 0
-208 245 -278 0
209 248 -281 0
-209 -248 0
-209 281 0
210 -211 -212 224 257 0
210 -211 -212 -224 -257 0
-210 212 0
-210 -224 257 0
-210 211 0
-210 224 -257 0
211 -252 282 0
211 -249 285 0
211 -249 -252 0
211 282 285 0
-211 252 -285 0
-211 249 -282 0
212 213 214 225 258 0
212 213 214 -225 -258 0
-212 -213 0
-212 -225 258 0
-212 -214 0
-212 225 -258 0
213 250 -283 0
-213 -250 0
-213 283 0
214 -249 282 0
-214 249 0
-214 -282 0
-154 215 -216 -217 -218 0
-215 218 0
154 -215 0
-215 217 0
-215 216 0
216 -237 -270 0
216 237 270 0
-216 237 -270 0
-216 -237 270 0
-133 -141 -143 -156 217 0
156 -217 0
133 -217 0
143 -217 0
141 -217 0
218 219 -222 -255 0
218 219 222 255 0
-218 -219 0
-218 -222 255 0
-218 222 -255 0
219 236 -269 0
219 -236 269 0
-219 -236 -269 0
-219 236 269 0
1 2 0
-1 -2 0
323 0

